c generated by sgen3tocnf
c nLits = 639
c actual nVars = 213
c Command: sgen3tocnf 72 35 0 0 216 3 1 0 /dev/null
p cnf 216 285
-28 -1 0
-28 -139 0
-1 -139 0
-178 -55 0
-178 -199 0
-55 -199 0
-88 -103 0
-88 -91 0
-103 -91 0
-34 -92 0
-34 -52 0
-92 -52 0
-196 -46 0
-196 -35 0
-46 -35 0
-175 -133 0
-175 -184 0
-133 -184 0
-100 -37 0
-100 -154 0
-37 -154 0
-181 -208 0
-181 -151 0
-208 -151 0
-53 -101 0
-53 -73 0
-101 -73 0
-115 -79 0
-115 -118 0
-79 -118 0
-104 -58 0
-104 -157 0
-58 -157 0
-119 -202 0
-119 -190 0
-202 -190 0
-47 -152 0
-47 -136 0
-152 -136 0
-61 -191 0
-61 -176 0
-191 -176 0
-203 -76 0
-203 -49 0
-76 -49 0
-74 -137 0
-74 -204 0
-137 -204 0
-158 -179 0
-158 -70 0
-179 -70 0
-40 -145 0
-40 -148 0
-145 -148 0
-166 -159 0
-166 -29 0
-159 -29 0
-160 -177 0
-160 -116 0
-177 -116 0
-43 -200 0
-43 -121 0
-200 -121 0
-185 -31 0
-185 -187 0
-31 -187 0
-32 -10 0
-32 -59 0
-10 -59 0
-188 -16 0
-188 -105 0
-16 -105 0
-13 -30 0
-13 -64 0
-30 -64 0
-142 -189 0
-142 -127 0
-189 -127 0
-201 -65 0
-201 -172 0
-65 -172 0
-80 -140 0
-80 -77 0
-140 -77 0
-146 -214 0
-146 -211 0
-214 -211 0
-153 -44 0
-153 -41 0
-44 -41 0
-38 -97 0
-38 -193 0
-97 -193 0
-134 -205 0
-134 -169 0
-205 -169 0
-173 -25 0
-173 -7 0
-25 -7 0
-122 -4 0
-122 -206 0
-4 -206 0
-60 -19 0
-60 -180 0
-19 -180 0
-2 -112 0
-2 -89 0
-112 -89 0
-17 -90 0
-17 -85 0
-90 -85 0
-138 -42 0
-138 -14 0
-42 -14 0
-130 -22 0
-130 -62 0
-22 -62 0
-98 -131 0
-98 -143 0
-131 -143 0
-109 -163 0
-109 -45 0
-163 -45 0
-26 -106 0
-26 -209 0
-106 -209 0
-86 -124 0
-86 -102 0
-124 -102 0
-215 -149 0
-215 -18 0
-149 -18 0
-212 -63 0
-212 -110 0
-63 -110 0
-128 -82 0
-128 -197 0
-82 -197 0
-71 -15 0
-71 -164 0
-15 -164 0
-141 -198 0
-141 -56 0
-198 -56 0
-192 -50 0
-192 -67 0
-50 -67 0
-11 -213 0
-11 -3 0
-213 -3 0
-57 -123 0
-57 -167 0
-123 -167 0
-83 -8 0
-83 -12 0
-8 -12 0
-107 -182 0
-107 -33 0
-182 -33 0
-93 -87 0
-93 -216 0
-87 -216 0
-125 -111 0
-125 -99 0
-111 -99 0
-20 -94 0
-20 -132 0
-94 -132 0
-68 -155 0
-68 -84 0
-155 -84 0
-23 -36 0
-23 -6 0
-36 -6 0
-113 -161 0
-113 -48 0
-161 -48 0
-66 -69 0
-66 -27 0
-69 -27 0
-210 -144 0
-210 -126 0
-144 -126 0
-51 -129 0
-51 -183 0
-129 -183 0
-207 -174 0
-207 -108 0
-174 -108 0
-194 -54 0
-194 -147 0
-54 -147 0
-95 -72 0
-95 -162 0
-72 -162 0
-156 -186 0
-156 -81 0
-186 -81 0
-170 -195 0
-170 -96 0
-195 -96 0
-150 -171 0
-150 -114 0
-171 -114 0
-9 -168 0
-9 -24 0
-168 -24 0
-78 -75 0
-78 -21 0
-75 -21 0
-165 -117 0
-165 -39 0
-117 -39 0
2 1 3 0
4 6 0
9 8 7 0
11 10 12 0
13 15 14 0
17 16 18 0
20 19 21 0
23 22 24 0
26 25 27 0
28 30 29 0
32 31 33 0
34 36 35 0
38 37 39 0
40 42 41 0
43 44 45 0
47 46 48 0
51 50 49 0
53 54 52 0
57 55 56 0
60 58 59 0
61 63 62 0
66 65 64 0
68 69 67 0
71 72 70 0
74 75 73 0
78 76 77 0
80 79 81 0
83 82 84 0
86 87 85 0
88 90 89 0
93 92 91 0
95 94 96 0
98 97 99 0
100 101 102 0
104 103 105 0
107 106 108 0
109 111 110 0
113 112 114 0
115 117 116 0
119 118 0
122 123 121 0
125 124 126 0
128 129 127 0
130 131 132 0
134 133 0
138 137 136 0
141 140 139 0
142 144 143 0
146 145 147 0
150 149 148 0
153 152 151 0
156 155 154 0
158 159 157 0
160 161 162 0
165 163 164 0
166 168 167 0
170 171 169 0
173 174 172 0
175 177 176 0
178 179 180 0
181 182 183 0
185 186 184 0
188 189 187 0
192 191 190 0
194 195 193 0
196 198 197 0
201 200 199 0
203 202 204 0
207 205 206 0
210 208 209 0
212 213 211 0
215 214 216 0
